

******************************************************************************
This program contains Ipopt, a library for large-scale nonlinear optimization.
 Ipopt is released as open source code under the Eclipse Public License (EPL).
         For more information visit http://projects.coin-or.org/Ipopt
******************************************************************************

This is Ipopt version 3.12.8, running with linear solver mumps.
NOTE: Other linear solvers might be more efficient (see Ipopt documentation).

Number of nonzeros in equality constraint Jacobian...:        0
Number of nonzeros in inequality constraint Jacobian.:        4
Number of nonzeros in Lagrangian Hessian.............:        1

Total number of variables............................:        2
                     variables with only lower bounds:        0
                variables with lower and upper bounds:        2
                     variables with only upper bounds:        0
Total number of equality constraints.................:        0
Total number of inequality constraints...............:        2
        inequality constraints with only lower bounds:        0
   inequality constraints with lower and upper bounds:        0
        inequality constraints with only upper bounds:        2

iter    objective    inf_pr   inf_du lg(mu)  ||d||  lg(rg) alpha_du alpha_pr  ls
   0 -2.2979997e-01 0.00e+00 4.92e-01  -1.0 0.00e+00    -  0.00e+00 0.00e+00   0
   1 -1.0431541e+00 0.00e+00 9.35e-01  -1.0 7.07e-01    -  3.95e-01 1.00e+00f  1
   2 -4.0285650e+00 0.00e+00 1.08e+00  -1.0 3.01e+00    -  9.96e-01 5.21e-01f  1
   3 -3.9811129e+00 0.00e+00 1.00e-06  -1.0 2.60e-01    -  1.00e+00 1.00e+00f  1
   4 -4.1231950e+00 0.00e+00 3.41e-02  -2.5 2.22e-01    -  8.24e-01 9.89e-01f  1
   5 -4.1221302e+00 0.00e+00 2.83e-08  -2.5 7.68e-02    -  1.00e+00 1.00e+00f  1
   6 -4.1248538e+00 0.00e+00 1.50e-09  -3.8 3.63e-03    -  1.00e+00 1.00e+00f  1
   7 -4.1249982e+00 0.00e+00 1.84e-11  -5.7 9.24e-05    -  1.00e+00 1.00e+00f  1
   8 -4.1250000e+00 0.00e+00 2.51e-14  -8.6 1.41e-06    -  1.00e+00 1.00e+00f  1

Number of Iterations....: 8

                                   (scaled)                 (unscaled)
Objective...............:  -4.1250000374946936e+00   -4.1250000374946936e+00
Dual infeasibility......:   2.5091040356528538e-14    2.5091040356528538e-14
Constraint violation....:   0.0000000000000000e+00    0.0000000000000000e+00
Complementarity.........:   2.5095652519991530e-09    2.5095652519991530e-09
Overall NLP error.......:   2.5095652519991530e-09    2.5095652519991530e-09


Number of objective function evaluations             = 9
Number of objective gradient evaluations             = 9
Number of equality constraint evaluations            = 0
Number of inequality constraint evaluations          = 9
Number of equality constraint Jacobian evaluations   = 0
Number of inequality constraint Jacobian evaluations = 9
Number of Lagrangian Hessian evaluations             = 8
Total CPU secs in IPOPT (w/o function evaluations)   =      0.000
Total CPU secs in NLP function evaluations           =      0.000

EXIT: Optimal Solution Found.
 
Ipopt 3.12.8: Optimal Solution Found
